0,20,52,89,57,48,4,24,31,73,
20,0,52,85,59,51,17,18,42,73,
52,52,0,39,8,10,52,34,31,22,
89,85,39,0,36,46,89,68,68,22,
57,59,8,36,0,10,58,41,33,17,
48,51,10,46,10,0,48,33,23,27,
4,17,52,89,58,48,0,22,32,73,
24,18,34,68,41,33,22,0,29,55,
31,42,31,68,33,23,32,29,0,49,
73,73,22,22,17,27,73,55,49,0,
